(set-logic HORN)
(declare-fun !inv0 (Int Int Int (Array Int Int) Int Int Int ) Bool)
(assert (forall ((N@0 Int)(start@0 Int)(end@0 Int)(array@0 (Array Int Int))(j@0 Int)(pivot@0 Int)(i@0 Int)) (=> (and (= |pivot@0| (select |array@0| |end@0|)) (= |i@0| (- |start@0| 1)) (= |j@0| |start@0|) (< |end@0| |N@0|) (<= |start@0| |end@0|) (> |N@0| 0) (<= 0 |start@0|)) (!inv0 |N@0| |start@0| |end@0| |array@0| |pivot@0| |i@0| |j@0|))))
(assert (forall ((N@0 Int)(start@0 Int)(end@0 Int)(array@0 (Array Int Int))(pivot@0 Int)(i@0 Int)(j@0 Int)(i@1 Int)(tmp1@0 Int)(array@1 (Array Int Int))(array@2 (Array Int Int))(pi@0 Int)) (=> (and (!inv0 |N@0| |start@0| |end@0| |array@0| |pivot@0| |i@0| |j@0|) (not (<= |j@0| (- |end@0| 1))) (= |i@1| (+ |i@0| 1)) (= |tmp1@0| (select |array@0| |i@1|)) (= |array@1| (store |array@0| |i@1| (select |array@0| |end@0|))) (= |array@2| (store |array@1| |end@0| |tmp1@0|)) (= |pi@0| |i@1|) (not (and (<= |start@0| |pi@0|) (<= |pi@0| |end@0|)))) false)))
(assert (forall ((N@0 Int)(start@0 Int)(end@0 Int)(array@0 (Array Int Int))(pivot@0 Int)(i@0 Int)(j@0 Int)(i@1 Int)(tmp1@0 Int)(array@1 (Array Int Int))(array@2 (Array Int Int))(pi@0 Int)) (=> (and (!inv0 |N@0| |start@0| |end@0| |array@0| |pivot@0| |i@0| |j@0|) (not (<= |j@0| (- |end@0| 1))) (= |i@1| (+ |i@0| 1)) (= |tmp1@0| (select |array@0| |i@1|)) (= |array@1| (store |array@0| |i@1| (select |array@0| |end@0|))) (= |array@2| (store |array@1| |end@0| |tmp1@0|)) (= |pi@0| |i@1|) (not (forall ((k@0 Int)) (=> (and (<= |start@0| |k@0|) (<= |k@0| |pi@0|)) (<= (select |array@2| |k@0|) (select |array@2| |pi@0|))))) (<= |start@0| |pi@0|) (<= |pi@0| |end@0|)) false)))
(assert (forall ((N@0 Int)(start@0 Int)(end@0 Int)(array@0 (Array Int Int))(pivot@0 Int)(i@0 Int)(j@0 Int)(i@1 Int)(tmp1@0 Int)(array@1 (Array Int Int))(array@2 (Array Int Int))(pi@0 Int)) (=> (and (!inv0 |N@0| |start@0| |end@0| |array@0| |pivot@0| |i@0| |j@0|) (not (<= |j@0| (- |end@0| 1))) (= |i@1| (+ |i@0| 1)) (= |tmp1@0| (select |array@0| |i@1|)) (= |array@1| (store |array@0| |i@1| (select |array@0| |end@0|))) (= |array@2| (store |array@1| |end@0| |tmp1@0|)) (= |pi@0| |i@1|) (forall ((k@0 Int)) (=> (and (<= |start@0| |k@0|) (<= |k@0| |pi@0|)) (<= (select |array@2| |k@0|) (select |array@2| |pi@0|)))) (not (forall ((l@0 Int)) (=> (and (<= |pi@0| |l@0|) (<= |l@0| |end@0|)) (>= (select |array@2| |l@0|) (select |array@2| |pi@0|))))) (<= |start@0| |pi@0|) (<= |pi@0| |end@0|)) false)))
(assert (forall ((N@0 Int)(start@0 Int)(end@0 Int)(array@0 (Array Int Int))(pivot@0 Int)(i@0 Int)(j@0 Int)(j@1 Int)(tmp@0 Int)(i@1 Int)(array@1 (Array Int Int))(array@2 (Array Int Int))) (=> (and (!inv0 |N@0| |start@0| |end@0| |array@1| |pivot@0| |i@1| |j@0|) (= |j@1| (+ |j@0| 1)) (<= |j@0| (- |end@0| 1)) (<= (select |array@1| |j@0|) |pivot@0|) (= |i@0| (+ |i@1| 1)) (= |tmp@0| (select |array@1| |j@0|)) (= |array@2| (store |array@1| |j@0| (select |array@1| |i@0|))) (= |array@0| (store |array@2| |i@0| |tmp@0|))) (!inv0 |N@0| |start@0| |end@0| |array@0| |pivot@0| |i@0| |j@1|))))
(assert (forall ((N@0 Int)(start@0 Int)(end@0 Int)(array@0 (Array Int Int))(pivot@0 Int)(i@0 Int)(j@0 Int)(j@1 Int)) (=> (and (!inv0 |N@0| |start@0| |end@0| |array@0| |pivot@0| |i@0| |j@0|) (= |j@1| (+ |j@0| 1)) (<= |j@0| (- |end@0| 1)) (not (<= (select |array@0| |j@0|) |pivot@0|))) (!inv0 |N@0| |start@0| |end@0| |array@0| |pivot@0| |i@0| |j@1|))))
(check-sat)